(set-logic ALL)
(declare-fun i1 () Int)
(declare-fun it184 () Int)
(declare-fun it185 () Int)
(declare-fun i2 () Int)
(declare-fun i3 () Int)
(declare-fun it186 () Int)
(declare-fun it187 () Int)
(declare-fun i4 () Int)
(declare-fun it188 () Int)
(declare-fun i5 () Int)
(declare-fun i6 () Int)
(declare-fun it189 () Int)
(declare-fun i7 () Int)
(declare-fun it190 () Int)
(declare-fun it191 () Int)
(declare-fun it192 () Int)
(declare-fun it193 () Int)
(declare-fun it194 () Int)
(declare-fun it195 () Int)
(declare-fun it196 () Int)
(declare-fun it197 () Int)
(declare-fun it198 () Int)
(declare-fun it199 () Int)
(declare-fun it200 () Int)
(declare-fun it201 () Int)
(declare-fun it202 () Int)
(declare-fun it203 () Int)
(declare-fun it204 () Int)
(declare-fun it206 () Int)
(declare-fun it207 () Int)
(declare-fun it208 () Int)
(declare-fun it209 () Int)
(declare-fun it210 () Int)
(declare-fun it211 () Int)
(declare-fun it212 () Int)
(declare-fun it213 () Int)
(declare-fun it214 () Int)
(declare-fun it215 () Int)
(declare-fun it216 () Int)
(declare-fun it217 () Int)
(declare-fun it218 () Int)
(declare-fun it219 () Int)
(declare-fun it220 () Int)
(declare-fun it221 () Int)
(declare-fun it222 () Int)
(declare-fun it223 () Int)
(declare-fun it224 () Int)
(declare-fun it225 () Int)
(declare-fun it226 () Int)
(declare-fun it227 () Int)
(declare-fun it228 () Int)
(declare-fun it229 () Int)
(declare-fun it230 () Int)
(declare-fun it231 () Int)
(declare-fun it232 () Int)
(declare-fun it233 () Int)
(declare-fun it234 () Int)
(declare-fun it235 () Int)
(declare-fun it236 () Int)
(declare-fun it237 () Int)
(declare-fun it238 () Int)
(declare-fun it239 () Int)
(declare-fun it240 () Int)
(declare-fun it101 () Int)
(assert (= (+ i1 (- 1)) 0))
(assert (= (+ it184 (- 5)) 0))
(assert (= (+ (* i2 (- 1)) it185 (- 4)) 0))
(assert (= (+ it186 (* i3 (- 1))) 0))
(assert (= (+ (* i4 (- 1)) it187) 0))
(assert (= (+ (* i5 (- 1)) it188) 0))
(assert (= (+ it189 (* i6 (- 1))) 0))
(assert (= (+ it190 (* i7 (- 1))) 0))
(assert (and (= (+ it184 (- 5)) 0) (> (+ it187 (- 2)) 0)))
(assert (= (+ it191 (- 18)) 0))
(assert (= (+ it192 (* it185 (- 1)) (- 12)) 0))
(assert (= (+ (* it186 (- 1)) it193) 0))
(assert (= (+ (* it187 (- 1)) it194) 0))
(assert (= (+ it195 (* it188 (- 1))) 0))
(assert (= it196 0))
(assert (= (+ (* it190 (- 1)) it197) 0))
(assert (and (= (+ it191 (- 18)) 0) (<= (+ it196 (* it194 (- 1)) 2) 0)))
(assert (= (+ it198 (- 20)) 0))
(assert (= (+ (* it192 (- 1)) it199 (- 2)) 0))
(assert (= (+ (* it193 (- 1)) it200) 0))
(assert (= (+ it201 (* it194 (- 1))) 0))
(assert (= it202 0))
(assert (= (+ (* it196 (- 1)) it203) 0))
(assert (= (+ (* it197 (- 1)) it204) 0))
(assert (and (<= (+ (* it201 (- 1)) (* it202 2) it203 3) 0) (= (+ it198 (- 20)) 0)))
(assert (= (+ it206 (- 21)) 0))
(assert (= (+ (* it199 (- 1)) it207 (- 1)) 0))
(assert (= (+ it208 (* it200 (- 1))) 0))
(assert (= (+ (* it201 (- 1)) it209) 0))
(assert (= (+ (* it202 (- 1)) it210) 0))
(assert (= (+ it211 (* it203 (- 1))) 0))
(assert (= (+ it212 (* it204 (- 1))) 0))
(assert (and (= (+ it206 (- 21)) 0) (= (+ it211 (* it209 (- 1)) (* it210 2) 3) 0)))
(assert (= (+ it213 (- 26)) 0))
(assert (= (+ it214 (* it207 (- 1)) (- 2)) 0))
(assert (= (+ (* it208 (- 1)) it215) 0))
(assert (= (+ (* it209 (- 1)) it216) 0))
(assert (= (+ (* it210 (- 1)) it217) 0))
(assert (= (+ (* it211 (- 1)) it218) 0))
(assert (= (+ it219 (* it210 (- 2)) (- 1)) 0))
(assert (= (+ it213 (- 26)) 0))
(assert (= (+ it220 (- 20)) 0))
(assert (= (+ (* it214 (- 1)) it221 (- 2)) 0))
(assert (= (+ it222 (* it215 (- 1))) 0))
(assert (= (+ it223 (* it216 (- 1))) 0))
(assert (= (+ (* it219 (- 1)) it224) 0))
(assert (= (+ it225 (* it218 (- 1))) 0))
(assert (= (+ it226 (* it219 (- 1))) 0))
(assert (and (> (+ it225 (* it223 (- 1)) (* it224 2) 3) 0) (= (+ it220 (- 20)) 0)))
(assert (= (+ it227 (- 18)) 0))
(assert (= (+ it228 (* it221 (- 1)) (- 4)) 0))
(assert (= (+ (* it225 (- 1)) it229 (- 1)) 0))
(assert (= (+ (* it223 (- 1)) it230) 0))
(assert (= (+ (* it224 (- 1)) it231) 0))
(assert (= (+ (* it225 (- 1)) it232 (- 1)) 0))
(assert (= (+ (* it226 (- 1)) it233) 0))
(assert (and (<= (+ it232 (* it230 (- 1)) 2) 0) (= (+ it227 (- 18)) 0)))
(assert (= (+ it234 (- 20)) 0))
(assert (= (+ (* it228 (- 1)) it235 (- 2)) 0))
(assert (= (+ (* it229 (- 1)) it236) 0))
(assert (= (+ (* it230 (- 1)) it237) 0))
(assert (= it238 0))
(assert (= (+ (* it232 (- 1)) it239) 0))
(assert (= (+ (* it233 (- 1)) it240) 0))
(assert (let ((a!1 (* (* (+ 0 it238) (exp 2 (+ it101 (- 1)))) (+ 0 (- 2))))
      (a!3 (* (* (+ 0 it238) (exp 2 (+ it101 (- 1)))) (+ 0 2))))
(let ((a!2 (+ (* (exp 2 (+ it101 (- 1))) (+ 0 (- 2)))
              (+ 0 (* it239 (- 1)))
              (+ 0 it237)
              a!1
              (+ 0 (- 1))))
      (a!4 (+ (* (exp 2 (+ it101 (- 1))) (+ 0 2))
              (+ 0 it239)
              (+ 0 (* it237 (- 1)))
              a!3
              (+ 0 1))))
  (and (>= (+ (* it238 (- 2)) (* it239 (- 1)) it237 (- 3)) 0)
       (>= a!2 (+ 0 0))
       (>= a!4 (+ 0 0))
       (>= (+ (* it234 (- 1)) 20) 0)
       (>= (+ (* it238 2) it239 (* it237 (- 1)) 3) 0)
       (>= (+ it234 (- 20)) 0)
       (>= (+ it101 (- 1)) 0)))))
(check-sat)
